33D32945 STP File, STP Format Version 1.0

SECTION Comments
Name "edge_n15_d5_s10"
Problem "Euclidean Steiner Tree Problem"
Remark "Generated with STPGenerator. 5 dimensions."
END

SECTION Graph
Nodes 15
END

SECTION Coordinates
DDDDD 0 0.5658107323 0.5658107323 0.5658107323 0.5658107323 0.5658107323
DDDDD 1 0.6109299178 0.6109299178 0.6109299178 0.6109299178 0.6109299178
DDDDD 2 0.5057680786 0.5057680786 0.5057680786 0.5057680786 0.5057680786
DDDDD 3 0.1796468744 0.1796468744 0.1796468744 0.1796468744 0.1796468744
DDDDD 4 0.8166862739 0.8166862739 0.8166862739 0.8166862739 0.8166862739
DDDDD 5 0.1834716542 0.1834716542 0.1834716542 0.1834716542 0.1834716542
DDDDD 6 0.5846529620 0.5846529620 0.5846529620 0.5846529620 0.5846529620
DDDDD 7 0.4221560766 0.4221560766 0.4221560766 0.4221560766 0.4221560766
DDDDD 8 0.0253341845 0.0253341845 0.0253341845 0.0253341845 0.0253341845
DDDDD 9 0.3162595943 0.3162595943 0.3162595943 0.3162595943 0.3162595943
DDDDD 10 0.0612761933 0.0612761933 0.0612761933 0.0612761933 0.0612761933
DDDDD 11 0.0836590180 0.0836590180 0.0836590180 0.0836590180 0.0836590180
DDDDD 12 0.9767909204 0.9767909204 0.9767909204 0.9767909204 0.9767909204
DDDDD 13 0.9780582851 0.9780582851 0.9780582851 0.9780582851 0.9780582851
DDDDD 14 0.8738890034 0.8738890034 0.8738890034 0.8738890034 0.8738890034
END
